% Formato de entrada de datos para el problema Planta de Energias
% N: Central Núclear
% H: Central Hidroeléctrica
% T: Central Térmica

% Parametros
% Número de Dias para producción de energia
n=2;

% Número de clientes
s=1;  

% Capacidad de producción diaria en MW
CP=[1000, 300, 500];

% Costo de producción de 1 MW para cada central (valor en dolares)
CC=[0.1, 0.1, 0.1];

% Demanda diaria para 1 cliente [MW] hasta n dias
d=[1800, 1000];
